NAME : MM11_depots
COMMENT : Instance 11 in MD algorithm. Coordinates of depots and vhcl speeds given.
TYPE : TSP
DIMENSION : 10
EDGE_WEIGHT_TYPE : ATT
NODE_COORD_SECTION
101 5.1399 99.2428 1
102 40.9326 95.2956 1
103 94.5372 31.1508 1
104 59.1796 77.8629 1
105 12.2829 47.9044 1
106 15.4306 42.8746 1
107 22.3423 39.6704 1
108 90.7130 67.6403 1
109 82.5080 71.2048 1
110 94.8137 99.3811 1
EOF
